36
120
84	2
82	1
81	1
80	2
77	1
75	1
73	1
72	2
67	1
66	1
64	1
63	1
61	1
58	2
56	1
55	2
53	1
52	1
51	3
50	2
49	1
48	1
47	4
46	1
37	1
36	1
33	1
31	1
29	1
25	3
24	1
23	1
20	2
17	1
14	1
12	1
